c Modular CNF with 2 modules
c Generated CNF instance
p cnf 20 320
10 4 2 0
10 4 -2 0
10 -4 2 0
-10 4 2 0
7 10 9 0
7 10 -9 0
7 -10 9 0
-7 10 9 0
3 10 7 0
3 10 -7 0
3 -10 7 0
-3 10 7 0
4 2 6 0
4 2 -6 0
4 -2 6 0
-4 2 6 0
5 3 7 0
5 3 -7 0
5 -3 7 0
-5 3 7 0
8 6 2 0
8 6 -2 0
8 -6 2 0
-8 6 2 0
1 9 5 0
1 9 -5 0
1 -9 5 0
-1 9 5 0
3 10 9 0
3 10 -9 0
3 -10 9 0
-3 10 9 0
1 4 7 0
1 4 -7 0
1 -4 7 0
-1 4 7 0
2 1 9 0
2 1 -9 0
2 -1 9 0
-2 1 9 0
2 9 1 0
2 9 -1 0
2 -9 1 0
-2 9 1 0
10 1 5 0
10 1 -5 0
10 -1 5 0
-10 1 5 0
4 10 2 0
4 10 -2 0
4 -10 2 0
-4 10 2 0
4 5 9 0
4 5 -9 0
4 -5 9 0
-4 5 9 0
4 9 10 0
4 9 -10 0
4 -9 10 0
-4 9 10 0
6 3 10 0
6 3 -10 0
6 -3 10 0
-6 3 10 0
2 8 9 0
2 8 -9 0
2 -8 9 0
-2 8 9 0
7 1 6 0
7 1 -6 0
7 -1 6 0
-7 1 6 0
3 2 4 0
3 2 -4 0
3 -2 4 0
-3 2 4 0
8 5 1 0
8 5 -1 0
8 -5 1 0
-8 5 1 0
2 1 7 0
2 1 -7 0
2 -1 7 0
-2 1 7 0
10 9 2 0
10 9 -2 0
10 -9 2 0
-10 9 2 0
6 4 9 0
6 4 -9 0
6 -4 9 0
-6 4 9 0
1 2 8 0
1 2 -8 0
1 -2 8 0
-1 2 8 0
8 6 1 0
8 6 -1 0
8 -6 1 0
-8 6 1 0
5 2 1 0
5 2 -1 0
5 -2 1 0
-5 2 1 0
3 2 1 0
3 2 -1 0
3 -2 1 0
-3 2 1 0
8 4 1 0
8 4 -1 0
8 -4 1 0
-8 4 1 0
1 4 9 0
1 4 -9 0
1 -4 9 0
-1 4 9 0
5 7 6 0
5 7 -6 0
5 -7 6 0
-5 7 6 0
10 9 4 0
10 9 -4 0
10 -9 4 0
-10 9 4 0
5 10 8 0
5 10 -8 0
5 -10 8 0
-5 10 8 0
4 1 3 0
4 1 -3 0
4 -1 3 0
-4 1 3 0
8 1 10 0
8 1 -10 0
8 -1 10 0
-8 1 10 0
4 7 3 0
4 7 -3 0
4 -7 3 0
-4 7 3 0
1 4 8 0
1 4 -8 0
1 -4 8 0
-1 4 8 0
10 3 9 0
10 3 -9 0
10 -3 9 0
-10 3 9 0
4 9 10 0
4 9 -10 0
4 -9 10 0
-4 9 10 0
2 4 7 0
2 4 -7 0
2 -4 7 0
-2 4 7 0
6 5 8 0
6 5 -8 0
6 -5 8 0
-6 5 8 0
17 13 20 0
17 13 -20 0
17 -13 20 0
-17 13 20 0
18 20 11 0
18 20 -11 0
18 -20 11 0
-18 20 11 0
16 17 18 0
16 17 -18 0
16 -17 18 0
-16 17 18 0
12 19 15 0
12 19 -15 0
12 -19 15 0
-12 19 15 0
12 16 11 0
12 16 -11 0
12 -16 11 0
-12 16 11 0
16 17 12 0
16 17 -12 0
16 -17 12 0
-16 17 12 0
12 18 17 0
12 18 -17 0
12 -18 17 0
-12 18 17 0
16 12 13 0
16 12 -13 0
16 -12 13 0
-16 12 13 0
15 18 20 0
15 18 -20 0
15 -18 20 0
-15 18 20 0
18 20 17 0
18 20 -17 0
18 -20 17 0
-18 20 17 0
13 19 15 0
13 19 -15 0
13 -19 15 0
-13 19 15 0
12 18 14 0
12 18 -14 0
12 -18 14 0
-12 18 14 0
13 18 12 0
13 18 -12 0
13 -18 12 0
-13 18 12 0
18 20 16 0
18 20 -16 0
18 -20 16 0
-18 20 16 0
17 20 12 0
17 20 -12 0
17 -20 12 0
-17 20 12 0
13 19 12 0
13 19 -12 0
13 -19 12 0
-13 19 12 0
16 19 12 0
16 19 -12 0
16 -19 12 0
-16 19 12 0
18 16 17 0
18 16 -17 0
18 -16 17 0
-18 16 17 0
14 19 20 0
14 19 -20 0
14 -19 20 0
-14 19 20 0
15 18 20 0
15 18 -20 0
15 -18 20 0
-15 18 20 0
14 18 13 0
14 18 -13 0
14 -18 13 0
-14 18 13 0
11 14 19 0
11 14 -19 0
11 -14 19 0
-11 14 19 0
17 20 16 0
17 20 -16 0
17 -20 16 0
-17 20 16 0
19 20 17 0
19 20 -17 0
19 -20 17 0
-19 20 17 0
12 13 14 0
12 13 -14 0
12 -13 14 0
-12 13 14 0
20 15 19 0
20 15 -19 0
20 -15 19 0
-20 15 19 0
13 11 17 0
13 11 -17 0
13 -11 17 0
-13 11 17 0
11 13 18 0
11 13 -18 0
11 -13 18 0
-11 13 18 0
20 14 13 0
20 14 -13 0
20 -14 13 0
-20 14 13 0
14 15 20 0
14 15 -20 0
14 -15 20 0
-14 15 20 0
19 15 18 0
19 15 -18 0
19 -15 18 0
-19 15 18 0
12 14 15 0
12 14 -15 0
12 -14 15 0
-12 14 15 0
13 11 14 0
13 11 -14 0
13 -11 14 0
-13 11 14 0
20 19 13 0
20 19 -13 0
20 -19 13 0
-20 19 13 0
15 20 17 0
15 20 -17 0
15 -20 17 0
-15 20 17 0
20 19 14 0
20 19 -14 0
20 -19 14 0
-20 19 14 0
15 20 19 0
15 20 -19 0
15 -20 19 0
-15 20 19 0
20 14 18 0
20 14 -18 0
20 -14 18 0
-20 14 18 0
20 16 15 0
20 16 -15 0
20 -16 15 0
-20 16 15 0
16 14 15 0
16 14 -15 0
16 -14 15 0
-16 14 15 0
